# Solution for model count
# Objective value = 10
z#1 0
z#2 0
z#3 1
z#4 0
z#5 0
z#6 1
z#7 1
z#8 0
z#9 1
z#10 1
z#11 0
z#12 1
z#13 0
z#14 0
z#15 0
z#16 0
z#17 1
z#18 1
z#19 1
z#20 0
z#21 0
z#22 1
z#23 0
z#24 0
x#24 0
x#23 0
x#22 2250
x#21 0
x#20 0
x#19 28
x#18 3710
x#17 886
x#16 0
x#15 0
x#14 0
x#13 0
x#12 677
x#11 0
x#10 1046
x#9 330
x#8 0
x#7 271
x#6 169
x#5 0
x#4 0
x#3 633
x#2 0
x#1 0
